108 300 131 147 131 145 114 121 136 131 104 118 107 148 112 127 117 115 127 107 111 122 113 101 128 105 104 117 106 133 135 141 101 140 137 133 134 126 128 145 106 106 137 114 103 123 141 145 138 142 126 150 113 140 125 116 145 129 107 125 136 117 115 138 106 127 145 115 127 147 134 133 102 120 121 130 144 136 124 105 127 100 129 115 114 103 105 108 106 112 108 143 129 123 104 110 124 123 125 100 144 108 108 146 128 129 125 146 140 149 